Reading model...
...model read.
creating competitive generators file...
...competitive generators recorded.
Loading data...
.. real-time data read.
Compiling instance...
...instance created.
Creating Offer Mitigation (model will solve as dispatch if TRUE)...
NOTE: storage offers will not be mitigated
...storage offer mitigation file created
Converting model to MPEC...
...converted
NOTE: initial MIP solve with only storage competitive to get feasible solution
Solving...

Welcome to IBM(R) ILOG(R) CPLEX(R) Interactive Optimizer 12.9.0.0
  with Simplex, Mixed Integer & Barrier Optimizers
5725-A06 5725-A29 5724-Y48 5724-Y49 5724-Y54 5724-Y55 5655-Y21
Copyright IBM Corp. 1988, 2019.  All Rights Reserved.

Type 'help' for a list of available commands.
Type 'help' followed by a command name for more
information on commands.

CPLEX> Logfile 'cplex.log' closed.
Logfile 'C:\Users\llavin\Desktop\test85\logs\tmp42kbk038.cplex.log' open.
CPLEX> New value for parallel optimization mode: -1
CPLEX> New value for mixed integer optimality gap tolerance: 0.001
CPLEX> New value for deterministic time limit in ticks: 100000
CPLEX> Problem 'C:\Users\llavin\Desktop\test85\logs\tmpwrodn40n.pyomo.lp' read.
Read time = 0.52 sec. (27.87 ticks)
CPLEX> Problem name         : C:\Users\llavin\Desktop\test85\logs\tmpwrodn40n.pyomo.lp
Objective sense      : Maximize
Variables            :  107779  [Nneg: 1,  Box: 44054,  Free: 8928,
                                 Binary: 54796]
Objective nonzeros   :   19058
Linear constraints   :  246995  [Less: 82866,  Greater: 118424,  Equal: 45705]
  Nonzeros           :  582461
  RHS nonzeros       :  136271

Variables            : Min LB: -5000.000        Max UB: 1000000.       
Objective nonzeros   : Min   : 0.03333333       Max   : 2500.000       
Linear constraints   :
  Nonzeros           : Min   : 0.03333333       Max   : 1000000.       
  RHS nonzeros       : Min   : 0.03333333       Max   : 1000000.       
CPLEX> CPXPARAM_Parallel                                -1
CPXPARAM_DetTimeLimit                            100000
CPXPARAM_MIP_Tolerances_MIPGap                   0.001
Tried aggregator 3 times.
MIP Presolve eliminated 172924 rows and 33893 columns.
MIP Presolve added 7751 rows and 0 columns.
MIP Presolve modified 52042 coefficients.
Aggregator did 26108 substitutions.
Reduced MIP has 55714 rows, 47394 columns, and 152205 nonzeros.
Reduced MIP has 18808 binaries, 0 generals, 0 SOSs, and 0 indicators.
Presolve time = 0.63 sec. (338.37 ticks)
Probing fixed 786 vars, tightened 8779 bounds.
Probing time = 0.44 sec. (16.21 ticks)
Tried aggregator 2 times.
MIP Presolve eliminated 1799 rows and 1592 columns.
MIP Presolve modified 7170 coefficients.
Aggregator did 98 substitutions.
Reduced MIP has 53817 rows, 45704 columns, and 146649 nonzeros.
Reduced MIP has 18019 binaries, 0 generals, 0 SOSs, and 0 indicators.
Presolve time = 0.31 sec. (268.23 ticks)
Probing fixed 2 vars, tightened 96 bounds.
Probing time = 0.63 sec. (19.90 ticks)
Clique table members: 92446.
MIP emphasis: balance optimality and feasibility.
MIP search method: dynamic search.
Parallel mode: opportunistic, using up to 32 threads.
Root relaxation solution time = 1.22 sec. (2204.60 ticks)

        Nodes                                         Cuts/
   Node  Left     Objective  IInf  Best Integer    Best Bound    ItCnt     Gap

      0     0        0.0000     2                      0.0000    10127         
*     0+    0                            0.0000        0.0000             0.00%
      0     0        cutoff              0.0000        0.0000    10127    0.00%
Elapsed time = 4.03 sec. (3343.60 ticks, tree = 0.01 MB, solutions = 1)

Root node processing (before b&c):
  Real time             =    4.06 sec. (3347.60 ticks)
Parallel b&c, 32 threads:
  Real time             =    0.00 sec. (0.00 ticks)
  Sync time (average)   =    0.00 sec.
  Wait time (average)   =    0.00 sec.
                          ------------
Total (root+branch&cut) =    4.06 sec. (3347.60 ticks)

Solution pool: 1 solution saved.

MIP - Integer optimal solution:  Objective =  0.0000000000e+00
Solution time =    4.08 sec.  Iterations = 10127  Nodes = 0
Deterministic time = 3347.90 ticks  (820.97 ticks/sec)

CPLEX> Incumbent solution written to file 'C:\Users\llavin\Desktop\test85\logs\tmpqdf22_l8.cplex.sol'.
CPLEX> NOTE: no warmstart specified for MIP iteration, default behavior is true
NOTE: resolving with all competitive generators using storage-only solution to warmstart
Solving...

Welcome to IBM(R) ILOG(R) CPLEX(R) Interactive Optimizer 12.9.0.0
  with Simplex, Mixed Integer & Barrier Optimizers
5725-A06 5725-A29 5724-Y48 5724-Y49 5724-Y54 5724-Y55 5655-Y21
Copyright IBM Corp. 1988, 2019.  All Rights Reserved.

Type 'help' for a list of available commands.
Type 'help' followed by a command name for more
information on commands.

CPLEX> Logfile 'cplex.log' closed.
Logfile 'C:\Users\llavin\Desktop\test85\logs\tmpn9xu84b1.cplex.log' open.
CPLEX> New value for parallel optimization mode: -1
CPLEX> New value for mixed integer optimality gap tolerance: 0.001
CPLEX> New value for deterministic time limit in ticks: 100000
CPLEX> Problem 'C:\Users\llavin\Desktop\test85\logs\tmpo5gyu1qd.pyomo.lp' read.
Read time = 0.52 sec. (27.92 ticks)
CPLEX> MIP start file 'C:\Users\llavin\Desktop\test85\logs\tmp50w8rprs.cplex.mst' read.
CPLEX> Problem name         : C:\Users\llavin\Desktop\test85\logs\tmpo5gyu1qd.pyomo.lp
Objective sense      : Maximize
Variables            :  109219  [Nneg: 1,  Box: 45494,  Free: 8928,
                                 Binary: 54796]
Objective nonzeros   :   20450
Linear constraints   :  246995  [Less: 82866,  Greater: 118424,  Equal: 45705]
  Nonzeros           :  582461
  RHS nonzeros       :  136271

Variables            : Min LB: -5000.000        Max UB: 1000000.       
Objective nonzeros   : Min   : 0.03333333       Max   : 2500.000       
Linear constraints   :
  Nonzeros           : Min   : 0.03333333       Max   : 1000000.       
  RHS nonzeros       : Min   : 0.03333333       Max   : 1000000.       
CPLEX> CPXPARAM_Parallel                                -1
CPXPARAM_DetTimeLimit                            100000
CPXPARAM_MIP_Tolerances_MIPGap                   0.001
1 of 1 MIP starts provided solutions.
MIP start 'm1' defined initial solution with objective 0.0000.
Tried aggregator 3 times.
MIP Presolve eliminated 172924 rows and 35333 columns.
MIP Presolve added 7751 rows and 0 columns.
MIP Presolve modified 52042 coefficients.
Aggregator did 26108 substitutions.
Reduced MIP has 55714 rows, 47394 columns, and 152205 nonzeros.
Reduced MIP has 18808 binaries, 0 generals, 0 SOSs, and 0 indicators.
Presolve time = 0.61 sec. (339.11 ticks)
Probing fixed 786 vars, tightened 8779 bounds.
Probing time = 0.45 sec. (16.21 ticks)
Tried aggregator 2 times.
MIP Presolve eliminated 1799 rows and 1592 columns.
MIP Presolve modified 7170 coefficients.
Aggregator did 98 substitutions.
Reduced MIP has 53817 rows, 45704 columns, and 146649 nonzeros.
Reduced MIP has 18019 binaries, 0 generals, 0 SOSs, and 0 indicators.
Presolve time = 0.30 sec. (268.25 ticks)
Probing fixed 2 vars, tightened 108 bounds.
Probing time = 0.66 sec. (20.03 ticks)
Clique table members: 92335.
MIP emphasis: balance optimality and feasibility.
MIP search method: dynamic search.
Parallel mode: opportunistic, using up to 32 threads.
Root relaxation solution time = 1.33 sec. (2298.22 ticks)

        Nodes                                         Cuts/
   Node  Left     Objective  IInf  Best Integer    Best Bound    ItCnt     Gap

*     0+    0                            0.0000   1.34600e+07              --- 
      0     0        cutoff              0.0000        0.0000    11866    0.00%
      0     0        cutoff              0.0000        0.0000    11866    0.00%
Elapsed time = 4.30 sec. (3534.30 ticks, tree = 0.01 MB, solutions = 1)

Root node processing (before b&c):
  Real time             =    4.33 sec. (3536.95 ticks)
Parallel b&c, 32 threads:
  Real time             =    0.00 sec. (0.00 ticks)
  Sync time (average)   =    0.00 sec.
  Wait time (average)   =    0.00 sec.
                          ------------
Total (root+branch&cut) =    4.33 sec. (3536.95 ticks)

Solution pool: 1 solution saved.

MIP - Integer optimal solution:  Objective =  0.0000000000e+00
Solution time =    4.39 sec.  Iterations = 11866  Nodes = 0
Deterministic time = 3537.26 ticks  (805.57 ticks/sec)

CPLEX> Incumbent solution written to file 'C:\Users\llavin\Desktop\test85\logs\tmp_7sakkga.cplex.sol'.
CPLEX> Exporting results... 
